
===== New CPLEX run =====
Instance: /home/yorig/tuner/mpils-tests/instances/miplib/easy/lotsize.mps
Config: /scratch/yorig/mpils-results-grid-seconds-5-watchdog/easy/24proc/seed-5/4_lotsize_seed-5_20260504_011421/expansion/config_param_CPXPARAM_MIP_Strategy_Order_0_iter_2.prm
========================

Selected objective sense:  MINIMIZE
Selected objective  name:  R1921
Selected RHS        name:  B
Selected bound      name:  BOUND
Wall watchdog: enabled factor=1 grace=1 limit=6 seconds
Version identifier: 22.1.2.0 | 2024-11-26 | 0edbb82fd
CPXPARAM_Threads                                 8
CPXPARAM_Parallel                                1
CPXPARAM_MIP_Cuts_Cliques                        -1
CPXPARAM_MIP_Cuts_Covers                         -1
CPXPARAM_MIP_Strategy_Order                      0
CPXPARAM_MIP_Cuts_Implied                        1
CPXPARAM_MIP_Limits_GomoryCand                   25
CPXPARAM_MIP_Cuts_Gomory                         1
CPXPARAM_MIP_Cuts_PathCut                        2
CPXPARAM_MIP_Cuts_Disjunctive                    -1
CPXPARAM_Emphasis_MIP                            1
CPXPARAM_TimeLimit                               5
Tried aggregator 1 time.
MIP Presolve eliminated 595 rows and 0 columns.
MIP Presolve added 1190 rows and 0 columns.
MIP Presolve modified 10 coefficients.
Reduced MIP has 2515 rows, 2985 columns, and 7755 nonzeros.
Reduced MIP has 1195 binaries, 0 generals, 0 SOSs, and 0 indicators.
Presolve time = 0.00 sec. (4.53 ticks)
Probing fixed 0 vars, tightened 5487 bounds.
Probing time = 0.01 sec. (18.38 ticks)
Tried aggregator 2 times.
Detecting symmetries...
MIP Presolve modified 1206 coefficients.
Aggregator did 10 substitutions.
Reduced MIP has 2505 rows, 2975 columns, and 7735 nonzeros.
Reduced MIP has 1195 binaries, 0 generals, 0 SOSs, and 0 indicators.
Presolve time = 0.00 sec. (6.66 ticks)
Probing fixed 0 vars, tightened 2401 bounds.
Probing time = 0.00 sec. (6.41 ticks)
Clique table members: 190.
MIP emphasis: integer feasibility.
MIP search method: dynamic search.
Parallel mode: deterministic, using up to 8 threads.
Root relaxation solution time = 0.01 sec. (9.71 ticks)

        Nodes                                         Cuts/
   Node  Left     Objective  IInf  Best Integer    Best Bound    ItCnt     Gap

      0     0   348385.3466   472                 348385.3466      882         
      0     0   572993.6826   462                   Cuts: 726     1894         
      0     0   804826.2087   708                   Cuts: 726     2778         
      0     0   948430.3141   703                   Cuts: 726     3536         
*     0+    0                       1.01740e+07   948430.3141            90.68%
*     0+    0                      7973370.0000   948430.3141            88.11%
Detecting symmetries...
      0     2   948430.3141   703  7973370.0000   948430.3141     3536   88.11%
Elapsed time = 0.34 sec. (482.95 ticks, tree = 0.02 MB, solutions = 2)
    251   171   970244.4898   792  7973370.0000   948796.4085     8552   88.10%
    883   703  1045351.1626   617  7973370.0000   948796.4085    14615   88.10%
   1543  1311  1186276.4964   423  7973370.0000   948796.4085    21931   88.10%

Performing restart 1

Repeating presolve.
Tried aggregator 1 time.
MIP Presolve modified 1154 coefficients.
Reduced MIP has 2505 rows, 2975 columns, and 7735 nonzeros.
Reduced MIP has 1195 binaries, 0 generals, 0 SOSs, and 0 indicators.
Presolve time = 0.00 sec. (3.78 ticks)
Tried aggregator 1 time.
MIP Presolve modified 1013 coefficients.
Reduced MIP has 2505 rows, 2975 columns, and 7735 nonzeros.
Reduced MIP has 1195 binaries, 0 generals, 0 SOSs, and 0 indicators.
Presolve time = 0.00 sec. (5.12 ticks)
Represolve time = 0.02 sec. (18.55 ticks)
   1644     0  1097944.8022   737  7973370.0000     Cuts: 726    29549   86.23%
   1644     0  1179521.1410   689  7973370.0000     Cuts: 726    30321   85.21%
   1644     0  1253251.5341   726  7973370.0000     Cuts: 726    31039   84.28%
   1644     2  1253251.5341   726  7973370.0000  1253251.5341    31039   84.28%
   1658    16  1310346.7504   615  7973370.0000  1253264.8192    31715   84.28%
   1694    52  1339703.6990   509  7973370.0000  1253264.8192    32478   84.28%
   1714    72  1423787.9014   538  7973370.0000  1253264.8192    35371   84.28%
   1758   113  1469686.9813   499  7973370.0000  1253275.5493    38285   84.28%
   1813   118  1358209.9490   780  7973370.0000  1253275.5493    43229   84.28%
*  1931+  258                      1891953.0000  1302482.5825            31.16%
*  2143+  413                      1873712.0000  1302482.5825            30.49%
*  2171   451      integral     0  1863878.0000  1302482.5825    73368   30.12%
Elapsed time = 3.74 sec. (4872.38 ticks, tree = 0.82 MB, solutions = 5)
*  2174   447      integral     0  1854663.0000  1302482.5825    73372   29.77%
*  2571+  792                      1841541.0000  1302525.9304            29.27%
*  2729+  834                      1584063.0000  1302525.9304            17.77%
*  2808+  834                      1581304.0000  1302525.9304            17.63%
   2833   946  1505549.5905   477  1581304.0000  1302525.9304   104031   17.63%
*  2930+  842                      1567826.0000  1302525.9304            16.92%

Implied bound cuts applied:  15
Flow cuts applied:  557
Mixed integer rounding cuts applied:  1070
Flow path cuts applied:  132
Multi commodity flow cuts applied:  18
Lift and project cuts applied:  2
Gomory fractional cuts applied:  1

Root node processing (before b&c):
  Real time             =    0.33 sec. (480.76 ticks)
Parallel b&c, 8 threads:
  Real time             =    4.67 sec. (5989.06 ticks)
  Sync time (average)   =    0.42 sec.
  Wait time (average)   =    0.00 sec.
                          ------------
Total (root+branch&cut) =    5.00 sec. (6469.82 ticks)
Gap: 16.51%
Upper bound: 1.56783e+06
Lower bound: 1.30894e+06
Termination status: Normal
End of CPLEX run. Time: 5.00496 seconds

===== New CPLEX run =====
Instance: /home/yorig/tuner/mpils-tests/instances/miplib/easy/lotsize.mps
Config: /scratch/yorig/mpils-results-grid-seconds-5-watchdog/easy/24proc/seed-5/4_lotsize_seed-5_20260504_011421/expansion/config_param_CPXPARAM_Preprocessing_Presolve_0_iter_2.prm
========================

Selected objective sense:  MINIMIZE
Selected objective  name:  R1921
Selected RHS        name:  B
Selected bound      name:  BOUND
Wall watchdog: enabled factor=1 grace=1 limit=6 seconds
Version identifier: 22.1.2.0 | 2024-11-26 | 0edbb82fd
CPXPARAM_Preprocessing_Presolve                  0
CPXPARAM_Threads                                 8
CPXPARAM_Parallel                                1
CPXPARAM_MIP_Cuts_Cliques                        -1
CPXPARAM_MIP_Cuts_Covers                         -1
CPXPARAM_MIP_Cuts_Implied                        1
CPXPARAM_MIP_Limits_GomoryCand                   25
CPXPARAM_MIP_Cuts_Gomory                         1
CPXPARAM_MIP_Cuts_PathCut                        2
CPXPARAM_MIP_Cuts_Disjunctive                    -1
CPXPARAM_Emphasis_MIP                            1
CPXPARAM_TimeLimit                               5
Clique table members: 125.
MIP emphasis: integer feasibility.
MIP search method: dynamic search.
Parallel mode: deterministic, using up to 8 threads.
Root relaxation solution time = 0.01 sec. (9.48 ticks)

        Nodes                                         Cuts/
   Node  Left     Objective  IInf  Best Integer    Best Bound    ItCnt     Gap

      0     0   348385.3466   471                 348385.3466     1479         
      0     0   568750.3235   556                   Cuts: 580     2606         
      0     0   732832.8978   604                   Cuts: 580     3292         
      0     0   879822.9266   615                   Cuts: 580     3974         
*     0+    0                       1.09202e+07   879822.9266            91.94%
*     0+    0                      8456904.0000   879822.9266            89.60%
Detecting symmetries...
      0     2   879822.9266   615  8456904.0000   879822.9266     3974   89.60%
Elapsed time = 0.24 sec. (341.76 ticks, tree = 0.02 MB, solutions = 2)
    291   230   897164.2555   617  8456904.0000   880954.1000     8593   89.58%
   1020   822  1032044.7079   511  8456904.0000   880954.1000    15596   89.58%
   2161  1915  1083024.6685   449  8456904.0000   880954.1000    27393   89.58%
   3580  3224  1732995.8293    77  8456904.0000   880954.1000    39260   89.58%
*  4527  4241      integral     0  2099294.0000   880954.1000    47117   58.04%
*  4542  4286      integral     0  2090014.0000   880954.1000    47394   57.85%
*  4908+ 4381                      1984977.0000   880954.1000            55.62%
*  4931  4666      integral     0  1928192.0000   880954.1000    50238   54.31%
*  4941  4645      integral     0  1926430.0000   880954.1000    50239   54.27%
   5052  4812  1063478.4440   512  1926430.0000   883658.6758    51324   54.13%
   6015  5588  1278054.1541   374  1926430.0000   883658.6758    60765   54.13%
   7221  6931  1666172.2307   118  1926430.0000   883658.6758    76143   54.13%
   8323  7704  1531523.5783   246  1926430.0000   883658.6758    84020   54.13%
*  9001+ 8333                      1896540.0000   883658.6758            53.41%
*  9090+ 8458                      1846423.0000   883658.6758            52.14%
   9803  8810  1621921.2816   187  1846423.0000   883658.6758    96538   52.14%
* 10187+ 8934                      1735111.0000   883658.6758            49.07%
* 10252+ 8934                      1732485.0000   883658.6758            48.99%
* 10317+ 8934                      1700767.0000   883658.6758            48.04%
  16260 13929  1310283.9655   443  1700767.0000   883658.6758   153730   48.04%
Elapsed time = 2.65 sec. (3444.79 ticks, tree = 19.56 MB, solutions = 13)
  21489 18908  1637636.5657   163  1700767.0000   883658.6758   201763   48.04%
  26880 24417  1687961.3107   170  1700767.0000   883658.6758   249020   48.04%
* 31679+28585                      1698072.0000   883658.6758            47.96%
* 31687+29106                      1682253.0000   883658.6758            47.47%
* 31699+29106                      1674706.0000   883658.6758            47.23%
* 31699+29106                      1672831.0000   883658.6758            47.18%
* 31728+28737                      1656681.0000   883658.6758            46.66%
* 31747+28737                      1655148.0000   883658.6758            46.61%
* 31799+28737                      1646677.0000   883658.6758            46.34%
* 32387+28920                      1639043.0000   883658.6758            46.09%
* 32414+28920                      1630034.0000   883658.6758            45.79%
* 32437+28393                      1628424.0000   883658.6758            45.74%
* 32476+28393                      1625469.0000   883658.6758            45.64%
* 32527+28393                      1612999.0000   883658.6758            45.22%
  32539 28148  1581040.0602   285  1612999.0000   883658.6758   296743   45.22%
* 32568+28393                      1611221.0000   883658.6758            45.16%
* 32640+28191                      1602972.0000   883658.6758            44.87%
* 32651+28191                      1602914.0000   883658.6758            44.87%

Implied bound cuts applied:  1
Flow cuts applied:  645
Mixed integer rounding cuts applied:  99
Flow path cuts applied:  318
Multi commodity flow cuts applied:  30
Gomory fractional cuts applied:  2

Root node processing (before b&c):
  Real time             =    0.24 sec. (341.25 ticks)
Parallel b&c, 8 threads:
  Real time             =    4.77 sec. (6195.84 ticks)
  Sync time (average)   =    0.49 sec.
  Wait time (average)   =    0.00 sec.
                          ------------
Total (root+branch&cut) =    5.00 sec. (6537.09 ticks)
Gap: 44.87%
Upper bound: 1.60291e+06
Lower bound: 883659
Termination status: Normal
End of CPLEX run. Time: 5.0063 seconds
